data/kcolor/5-20-0.5/id=1457_n=20_p=0.5_k=5.wcnf
p wcnf 100 445 1000
1000 1 2 3 4 5 0
1000 6 7 8 9 10 0
1000 11 12 13 14 15 0
1000 16 17 18 19 20 0
46 21 22 23 24 25 0
57 26 27 28 29 30 0
1000 31 32 33 34 35 0
1 36 37 38 39 40 0
1000 41 42 43 44 45 0
1000 46 47 48 49 50 0
1000 51 52 53 54 55 0
64 56 57 58 59 60 0
1000 61 62 63 64 65 0
1000 66 67 68 69 70 0
1000 71 72 73 74 75 0
71 76 77 78 79 80 0
1000 81 82 83 84 85 0
1000 86 87 88 89 90 0
1000 91 92 93 94 95 0
91 96 97 98 99 100 0
1000 -1 -21 0
92 -2 -22 0
29 -3 -23 0
1000 -4 -24 0
38 -5 -25 0
1000 -1 -36 0
53 -2 -37 0
2 -3 -38 0
1000 -4 -39 0
1000 -5 -40 0
1000 -1 -41 0
40 -2 -42 0
1000 -3 -43 0
1000 -4 -44 0
1000 -5 -45 0
1000 -1 -46 0
1000 -2 -47 0
52 -3 -48 0
37 -4 -49 0
1000 -5 -50 0
1000 -1 -56 0
1000 -2 -57 0
82 -3 -58 0
1000 -4 -59 0
1000 -5 -60 0
100 -1 -66 0
1000 -2 -67 0
1000 -3 -68 0
1000 -4 -69 0
1000 -5 -70 0
1000 -1 -81 0
1000 -2 -82 0
18 -3 -83 0
82 -4 -84 0
1000 -5 -85 0
1000 -1 -96 0
1000 -2 -97 0
1000 -3 -98 0
1000 -4 -99 0
1000 -5 -100 0
1000 -6 -11 0
1000 -7 -12 0
71 -8 -13 0
1000 -9 -14 0
1000 -10 -15 0
1000 -6 -31 0
1000 -7 -32 0
1000 -8 -33 0
32 -9 -34 0
1000 -10 -35 0
1000 -6 -41 0
8 -7 -42 0
24 -8 -43 0
1000 -9 -44 0
1000 -10 -45 0
1000 -6 -51 0
1000 -7 -52 0
66 -8 -53 0
1000 -9 -54 0
72 -10 -55 0
1000 -6 -66 0
1000 -7 -67 0
1000 -8 -68 0
1000 -9 -69 0
1000 -10 -70 0
1000 -6 -76 0
1000 -7 -77 0
15 -8 -78 0
1000 -9 -79 0
1000 -10 -80 0
1000 -6 -81 0
1000 -7 -82 0
1000 -8 -83 0
43 -9 -84 0
38 -10 -85 0
1000 -6 -86 0
1000 -7 -87 0
1000 -8 -88 0
70 -9 -89 0
26 -10 -90 0
17 -11 -16 0
94 -12 -17 0
1000 -13 -18 0
28 -14 -19 0
1000 -15 -20 0
1000 -11 -26 0
1000 -12 -27 0
1000 -13 -28 0
99 -14 -29 0
1000 -15 -30 0
1000 -11 -31 0
32 -12 -32 0
1000 -13 -33 0
1000 -14 -34 0
1000 -15 -35 0
1000 -11 -41 0
1000 -12 -42 0
65 -13 -43 0
1000 -14 -44 0
1000 -15 -45 0
1000 -11 -46 0
1000 -12 -47 0
1000 -13 -48 0
1000 -14 -49 0
1000 -15 -50 0
15 -11 -51 0
1000 -12 -52 0
71 -13 -53 0
93 -14 -54 0
1000 -15 -55 0
1000 -11 -86 0
1000 -12 -87 0
1000 -13 -88 0
1000 -14 -89 0
1000 -15 -90 0
1000 -11 -91 0
1000 -12 -92 0
1000 -13 -93 0
1000 -14 -94 0
1000 -15 -95 0
91 -16 -21 0
1000 -17 -22 0
1000 -18 -23 0
1000 -19 -24 0
1000 -20 -25 0
1000 -16 -31 0
1000 -17 -32 0
47 -18 -33 0
30 -19 -34 0
29 -20 -35 0
1000 -16 -46 0
1000 -17 -47 0
55 -18 -48 0
15 -19 -49 0
1000 -20 -50 0
30 -16 -51 0
1000 -17 -52 0
1000 -18 -53 0
1000 -19 -54 0
1000 -20 -55 0
1000 -16 -61 0
1000 -17 -62 0
25 -18 -63 0
1000 -19 -64 0
1000 -20 -65 0
34 -16 -66 0
1000 -17 -67 0
1000 -18 -68 0
1000 -19 -69 0
1000 -20 -70 0
1000 -16 -71 0
1000 -17 -72 0
1000 -18 -73 0
1000 -19 -74 0
72 -20 -75 0
37 -16 -86 0
1000 -17 -87 0
1000 -18 -88 0
1000 -19 -89 0
1000 -20 -90 0
1000 -16 -91 0
1000 -17 -92 0
1000 -18 -93 0
54 -19 -94 0
1000 -20 -95 0
1000 -16 -96 0
4 -17 -97 0
34 -18 -98 0
1000 -19 -99 0
1000 -20 -100 0
1000 -21 -26 0
3 -22 -27 0
16 -23 -28 0
36 -24 -29 0
1000 -25 -30 0
1000 -21 -41 0
1000 -22 -42 0
1000 -23 -43 0
1000 -24 -44 0
76 -25 -45 0
1000 -21 -66 0
1000 -22 -67 0
65 -23 -68 0
1000 -24 -69 0
1000 -25 -70 0
1000 -21 -71 0
96 -22 -72 0
20 -23 -73 0
1000 -24 -74 0
1000 -25 -75 0
1000 -21 -76 0
1000 -22 -77 0
14 -23 -78 0
1000 -24 -79 0
1000 -25 -80 0
79 -21 -81 0
99 -22 -82 0
1000 -23 -83 0
1000 -24 -84 0
1000 -25 -85 0
1000 -21 -86 0
1000 -22 -87 0
50 -23 -88 0
1000 -24 -89 0
1000 -25 -90 0
1000 -26 -31 0
13 -27 -32 0
1000 -28 -33 0
1000 -29 -34 0
1000 -30 -35 0
29 -26 -36 0
1000 -27 -37 0
64 -28 -38 0
72 -29 -39 0
1000 -30 -40 0
76 -26 -51 0
1000 -27 -52 0
1000 -28 -53 0
1000 -29 -54 0
1000 -30 -55 0
1000 -26 -61 0
1000 -27 -62 0
1000 -28 -63 0
1000 -29 -64 0
1000 -30 -65 0
1000 -26 -66 0
80 -27 -67 0
70 -28 -68 0
1000 -29 -69 0
1000 -30 -70 0
1000 -26 -81 0
9 -27 -82 0
1000 -28 -83 0
1000 -29 -84 0
91 -30 -85 0
68 -26 -86 0
1000 -27 -87 0
1000 -28 -88 0
1000 -29 -89 0
1000 -30 -90 0
1000 -26 -91 0
1000 -27 -92 0
1000 -28 -93 0
1000 -29 -94 0
1000 -30 -95 0
51 -31 -41 0
1000 -32 -42 0
41 -33 -43 0
1000 -34 -44 0
1000 -35 -45 0
1000 -31 -51 0
1000 -32 -52 0
25 -33 -53 0
1000 -34 -54 0
1000 -35 -55 0
1000 -31 -56 0
1000 -32 -57 0
1000 -33 -58 0
1000 -34 -59 0
1000 -35 -60 0
1000 -31 -71 0
1000 -32 -72 0
1000 -33 -73 0
82 -34 -74 0
1000 -35 -75 0
1000 -31 -76 0
1000 -32 -77 0
1000 -33 -78 0
7 -34 -79 0
69 -35 -80 0
1000 -31 -81 0
1000 -32 -82 0
1000 -33 -83 0
1000 -34 -84 0
1000 -35 -85 0
1000 -31 -86 0
21 -32 -87 0
72 -33 -88 0
1000 -34 -89 0
52 -35 -90 0
1000 -36 -61 0
1000 -37 -62 0
1000 -38 -63 0
1000 -39 -64 0
77 -40 -65 0
88 -36 -71 0
1000 -37 -72 0
1000 -38 -73 0
1000 -39 -74 0
1000 -40 -75 0
1000 -36 -86 0
1000 -37 -87 0
1000 -38 -88 0
26 -39 -89 0
17 -40 -90 0
50 -36 -96 0
1000 -37 -97 0
1000 -38 -98 0
1000 -39 -99 0
1000 -40 -100 0
1000 -41 -46 0
1000 -42 -47 0
1000 -43 -48 0
1000 -44 -49 0
1000 -45 -50 0
1000 -41 -51 0
1000 -42 -52 0
1000 -43 -53 0
1000 -44 -54 0
1000 -45 -55 0
41 -41 -61 0
97 -42 -62 0
1000 -43 -63 0
1000 -44 -64 0
1000 -45 -65 0
1000 -41 -76 0
1000 -42 -77 0
1000 -43 -78 0
1000 -44 -79 0
25 -45 -80 0
25 -41 -81 0
58 -42 -82 0
59 -43 -83 0
1000 -44 -84 0
1000 -45 -85 0
22 -46 -61 0
1000 -47 -62 0
1000 -48 -63 0
1000 -49 -64 0
1000 -50 -65 0
61 -46 -76 0
1000 -47 -77 0
1000 -48 -78 0
1000 -49 -79 0
32 -50 -80 0
16 -46 -81 0
1000 -47 -82 0
15 -48 -83 0
44 -49 -84 0
1000 -50 -85 0
1000 -46 -86 0
1000 -47 -87 0
1000 -48 -88 0
1000 -49 -89 0
1000 -50 -90 0
31 -51 -66 0
1000 -52 -67 0
1000 -53 -68 0
1000 -54 -69 0
1000 -55 -70 0
1000 -51 -71 0
1000 -52 -72 0
63 -53 -73 0
96 -54 -74 0
1000 -55 -75 0
96 -51 -81 0
1000 -52 -82 0
1000 -53 -83 0
1000 -54 -84 0
65 -55 -85 0
1000 -51 -96 0
1000 -52 -97 0
1000 -53 -98 0
10 -54 -99 0
1000 -55 -100 0
1000 -56 -61 0
1000 -57 -62 0
21 -58 -63 0
94 -59 -64 0
39 -60 -65 0
1000 -56 -71 0
1000 -57 -72 0
1000 -58 -73 0
8 -59 -74 0
1000 -60 -75 0
51 -56 -86 0
1000 -57 -87 0
1000 -58 -88 0
1000 -59 -89 0
1000 -60 -90 0
1000 -66 -71 0
1000 -67 -72 0
1000 -68 -73 0
66 -69 -74 0
1000 -70 -75 0
65 -66 -86 0
1000 -67 -87 0
32 -68 -88 0
35 -69 -89 0
1000 -70 -90 0
1000 -71 -76 0
84 -72 -77 0
1000 -73 -78 0
1000 -74 -79 0
71 -75 -80 0
1000 -71 -91 0
1000 -72 -92 0
1000 -73 -93 0
1000 -74 -94 0
1000 -75 -95 0
30 -76 -81 0
1000 -77 -82 0
1000 -78 -83 0
47 -79 -84 0
1000 -80 -85 0
1000 -76 -86 0
100 -77 -87 0
1000 -78 -88 0
99 -79 -89 0
1000 -80 -90 0
1000 -81 -96 0
1000 -82 -97 0
38 -83 -98 0
1000 -84 -99 0
1000 -85 -100 0
7 -86 -91 0
24 -87 -92 0
1000 -88 -93 0
1000 -89 -94 0
1000 -90 -95 0
1000 -91 -96 0
1000 -92 -97 0
1000 -93 -98 0
1000 -94 -99 0
62 -95 -100 0
